p cnf 350 1188
c p weight 140 -1 0
c p weight -140 1 0
c p weight 142 6.12323399573676603586882014729198302312846062338790031898128063403419218957424163818359375E-17 0
c p weight -142 1 0
c p weight 143 1 0
c p weight -143 1 0
c p weight 144 -1 0
c p weight -144 1 0
c p weight 146 -1 0
c p weight -146 1 0
c p weight 149 -1 0
c p weight -149 1 0
c p weight 152 -1 0
c p weight -152 1 0
c p weight 155 -1 0
c p weight -155 1 0
c p weight 158 -1 0
c p weight -158 1 0
c p weight 161 -1 0
c p weight -161 1 0
c p weight 164 -1 0
c p weight -164 1 0
c p weight 167 -1 0
c p weight -167 1 0
c p weight 170 -1 0
c p weight -170 1 0
c p weight 173 -1 0
c p weight -173 1 0
c p weight 176 -1 0
c p weight -176 1 0
c p weight 179 -1 0
c p weight -179 1 0
c p weight 182 -1 0
c p weight -182 1 0
c p weight 185 -1 0
c p weight -185 1 0
c p weight 188 -1 0
c p weight -188 1 0
c p weight 191 -1 0
c p weight -191 1 0
c p weight 194 -1 0
c p weight -194 1 0
c p weight 197 -1 0
c p weight -197 1 0
c p weight 200 -1 0
c p weight -200 1 0
c p weight 203 -1 0
c p weight -203 1 0
c p weight 206 -1 0
c p weight -206 1 0
c p weight 209 -1 0
c p weight -209 1 0
c p weight 212 -1 0
c p weight -212 1 0
c p weight 215 -1 0
c p weight -215 1 0
c p weight 218 -1 0
c p weight -218 1 0
c p weight 221 -1 0
c p weight -221 1 0
c p weight 224 -1 0
c p weight -224 1 0
c p weight 227 -1 0
c p weight -227 1 0
c p weight 230 -1 0
c p weight -230 1 0
c p weight 233 -1 0
c p weight -233 1 0
c p weight 236 -1 0
c p weight -236 1 0
c p weight 239 -1 0
c p weight -239 1 0
c p weight 242 -1 0
c p weight -242 1 0
c p weight 245 -1 0
c p weight -245 1 0
c p weight 248 -1 0
c p weight -248 1 0
c p weight 251 -1 0
c p weight -251 1 0
c p weight 254 -1 0
c p weight -254 1 0
c p weight 257 -1 0
c p weight -257 1 0
c p weight 260 -1 0
c p weight -260 1 0
c p weight 263 -1 0
c p weight -263 1 0
c p weight 266 -1 0
c p weight -266 1 0
c p weight 269 -1 0
c p weight -269 1 0
c p weight 272 -1 0
c p weight -272 1 0
c p weight 275 -1 0
c p weight -275 1 0
c p weight 278 -1 0
c p weight -278 1 0
c p weight 281 -1 0
c p weight -281 1 0
c p weight 284 -1 0
c p weight -284 1 0
c p weight 287 -1 0
c p weight -287 1 0
c p weight 290 -1 0
c p weight -290 1 0
c p weight 293 -1 0
c p weight -293 1 0
c p weight 296 -1 0
c p weight -296 1 0
c p weight 299 -1 0
c p weight -299 1 0
c p weight 302 -1 0
c p weight -302 1 0
c p weight 305 -1 0
c p weight -305 1 0
c p weight 308 -1 0
c p weight -308 1 0
c p weight 311 -1 0
c p weight -311 1 0
c p weight 314 -1 0
c p weight -314 1 0
c p weight 317 -1 0
c p weight -317 1 0
c p weight 320 -1 0
c p weight -320 1 0
c p weight 323 -1 0
c p weight -323 1 0
c p weight 326 -1 0
c p weight -326 1 0
c p weight 329 -1 0
c p weight -329 1 0
c p weight 332 -1 0
c p weight -332 1 0
c p weight 335 -1 0
c p weight -335 1 0
c p weight 338 -1 0
c p weight -338 1 0
c p weight 341 -1 0
c p weight -341 1 0
c p weight 344 -1 0
c p weight -344 1 0
c p weight 347 -1 0
c p weight -347 1 0
c p weight 350 -1 0
c p weight -350 1 0
-137 0
-135 0
-133 0
-131 0
-129 0
-127 0
-125 0
-123 0
-121 0
-119 0
-117 0
-115 0
-113 0
-111 0
-109 0
-107 0
-105 0
-103 0
-101 0
-99 0
-97 0
-95 0
-93 0
-91 0
-89 0
-87 0
-85 0
-83 0
-81 0
-79 0
-77 0
-75 0
-73 0
-71 0
-69 0
-67 0
-65 0
-63 0
-61 0
-59 0
-57 0
-55 0
-53 0
-51 0
-49 0
-47 0
-45 0
-43 0
-41 0
-39 0
-37 0
-35 0
-33 0
-31 0
-29 0
-27 0
-25 0
-23 0
-21 0
-19 0
-17 0
-15 0
-13 0
-11 0
-9 0
-7 0
-5 0
-3 0
-1 0
139 137 -138 0
139 -137 138 0
-139 137 138 0
-139 -137 -138 0
-140 137 0
-140 138 0
140 -137 -138 0
141 -137 139 0
-141 137 139 0
-142 139 0
141 -142 -137 0
-141 -142 137 0
141 142 137 -139 0
-141 142 -137 -139 0
-143 139 0
141 -143 137 0
-141 -143 -137 0
141 143 -137 -139 0
-141 143 137 -139 0
-144 141 0
-144 139 0
-144 -137 0
144 -141 137 -139 0
145 141 -139 0
145 -141 139 0
-145 141 139 0
-145 -141 -139 0
-146 141 0
-146 139 0
146 -141 -139 0
147 141 -135 0
147 -141 135 0
-147 141 135 0
-147 -141 -135 0
148 145 -136 0
148 -145 136 0
-148 145 136 0
-148 -145 -136 0
-149 141 0
-149 136 0
-149 135 -145 0
-149 -135 145 0
149 -141 135 145 -136 0
149 -141 -135 -145 -136 0
150 147 -133 0
150 -147 133 0
-150 147 133 0
-150 -147 -133 0
151 136 -134 0
151 -136 134 0
-151 136 134 0
-151 -136 -134 0
-152 147 0
-152 134 0
-152 133 -136 0
-152 -133 136 0
152 -147 133 136 -134 0
152 -147 -133 -136 -134 0
153 150 -131 0
153 -150 131 0
-153 150 131 0
-153 -150 -131 0
154 134 -132 0
154 -134 132 0
-154 134 132 0
-154 -134 -132 0
-155 150 0
-155 132 0
-155 131 -134 0
-155 -131 134 0
155 -150 131 134 -132 0
155 -150 -131 -134 -132 0
156 153 -129 0
156 -153 129 0
-156 153 129 0
-156 -153 -129 0
157 132 -130 0
157 -132 130 0
-157 132 130 0
-157 -132 -130 0
-158 153 0
-158 130 0
-158 129 -132 0
-158 -129 132 0
158 -153 129 132 -130 0
158 -153 -129 -132 -130 0
159 156 -127 0
159 -156 127 0
-159 156 127 0
-159 -156 -127 0
160 130 -128 0
160 -130 128 0
-160 130 128 0
-160 -130 -128 0
-161 156 0
-161 128 0
-161 127 -130 0
-161 -127 130 0
161 -156 127 130 -128 0
161 -156 -127 -130 -128 0
162 159 -125 0
162 -159 125 0
-162 159 125 0
-162 -159 -125 0
163 128 -126 0
163 -128 126 0
-163 128 126 0
-163 -128 -126 0
-164 159 0
-164 126 0
-164 125 -128 0
-164 -125 128 0
164 -159 125 128 -126 0
164 -159 -125 -128 -126 0
165 162 -123 0
165 -162 123 0
-165 162 123 0
-165 -162 -123 0
166 126 -124 0
166 -126 124 0
-166 126 124 0
-166 -126 -124 0
-167 162 0
-167 124 0
-167 123 -126 0
-167 -123 126 0
167 -162 123 126 -124 0
167 -162 -123 -126 -124 0
168 165 -121 0
168 -165 121 0
-168 165 121 0
-168 -165 -121 0
169 124 -122 0
169 -124 122 0
-169 124 122 0
-169 -124 -122 0
-170 165 0
-170 122 0
-170 121 -124 0
-170 -121 124 0
170 -165 121 124 -122 0
170 -165 -121 -124 -122 0
171 168 -119 0
171 -168 119 0
-171 168 119 0
-171 -168 -119 0
172 122 -120 0
172 -122 120 0
-172 122 120 0
-172 -122 -120 0
-173 168 0
-173 120 0
-173 119 -122 0
-173 -119 122 0
173 -168 119 122 -120 0
173 -168 -119 -122 -120 0
174 171 -117 0
174 -171 117 0
-174 171 117 0
-174 -171 -117 0
175 120 -118 0
175 -120 118 0
-175 120 118 0
-175 -120 -118 0
-176 171 0
-176 118 0
-176 117 -120 0
-176 -117 120 0
176 -171 117 120 -118 0
176 -171 -117 -120 -118 0
177 174 -115 0
177 -174 115 0
-177 174 115 0
-177 -174 -115 0
178 118 -116 0
178 -118 116 0
-178 118 116 0
-178 -118 -116 0
-179 174 0
-179 116 0
-179 115 -118 0
-179 -115 118 0
179 -174 115 118 -116 0
179 -174 -115 -118 -116 0
180 177 -113 0
180 -177 113 0
-180 177 113 0
-180 -177 -113 0
181 116 -114 0
181 -116 114 0
-181 116 114 0
-181 -116 -114 0
-182 177 0
-182 114 0
-182 113 -116 0
-182 -113 116 0
182 -177 113 116 -114 0
182 -177 -113 -116 -114 0
183 180 -111 0
183 -180 111 0
-183 180 111 0
-183 -180 -111 0
184 114 -112 0
184 -114 112 0
-184 114 112 0
-184 -114 -112 0
-185 180 0
-185 112 0
-185 111 -114 0
-185 -111 114 0
185 -180 111 114 -112 0
185 -180 -111 -114 -112 0
186 183 -109 0
186 -183 109 0
-186 183 109 0
-186 -183 -109 0
187 112 -110 0
187 -112 110 0
-187 112 110 0
-187 -112 -110 0
-188 183 0
-188 110 0
-188 109 -112 0
-188 -109 112 0
188 -183 109 112 -110 0
188 -183 -109 -112 -110 0
189 186 -107 0
189 -186 107 0
-189 186 107 0
-189 -186 -107 0
190 110 -108 0
190 -110 108 0
-190 110 108 0
-190 -110 -108 0
-191 186 0
-191 108 0
-191 107 -110 0
-191 -107 110 0
191 -186 107 110 -108 0
191 -186 -107 -110 -108 0
192 189 -105 0
192 -189 105 0
-192 189 105 0
-192 -189 -105 0
193 108 -106 0
193 -108 106 0
-193 108 106 0
-193 -108 -106 0
-194 189 0
-194 106 0
-194 105 -108 0
-194 -105 108 0
194 -189 105 108 -106 0
194 -189 -105 -108 -106 0
195 192 -103 0
195 -192 103 0
-195 192 103 0
-195 -192 -103 0
196 106 -104 0
196 -106 104 0
-196 106 104 0
-196 -106 -104 0
-197 192 0
-197 104 0
-197 103 -106 0
-197 -103 106 0
197 -192 103 106 -104 0
197 -192 -103 -106 -104 0
198 195 -101 0
198 -195 101 0
-198 195 101 0
-198 -195 -101 0
199 104 -102 0
199 -104 102 0
-199 104 102 0
-199 -104 -102 0
-200 195 0
-200 102 0
-200 101 -104 0
-200 -101 104 0
200 -195 101 104 -102 0
200 -195 -101 -104 -102 0
201 198 -99 0
201 -198 99 0
-201 198 99 0
-201 -198 -99 0
202 102 -100 0
202 -102 100 0
-202 102 100 0
-202 -102 -100 0
-203 198 0
-203 100 0
-203 99 -102 0
-203 -99 102 0
203 -198 99 102 -100 0
203 -198 -99 -102 -100 0
204 201 -97 0
204 -201 97 0
-204 201 97 0
-204 -201 -97 0
205 100 -98 0
205 -100 98 0
-205 100 98 0
-205 -100 -98 0
-206 201 0
-206 98 0
-206 97 -100 0
-206 -97 100 0
206 -201 97 100 -98 0
206 -201 -97 -100 -98 0
207 204 -95 0
207 -204 95 0
-207 204 95 0
-207 -204 -95 0
208 98 -96 0
208 -98 96 0
-208 98 96 0
-208 -98 -96 0
-209 204 0
-209 96 0
-209 95 -98 0
-209 -95 98 0
209 -204 95 98 -96 0
209 -204 -95 -98 -96 0
210 207 -93 0
210 -207 93 0
-210 207 93 0
-210 -207 -93 0
211 96 -94 0
211 -96 94 0
-211 96 94 0
-211 -96 -94 0
-212 207 0
-212 94 0
-212 93 -96 0
-212 -93 96 0
212 -207 93 96 -94 0
212 -207 -93 -96 -94 0
213 210 -91 0
213 -210 91 0
-213 210 91 0
-213 -210 -91 0
214 94 -92 0
214 -94 92 0
-214 94 92 0
-214 -94 -92 0
-215 210 0
-215 92 0
-215 91 -94 0
-215 -91 94 0
215 -210 91 94 -92 0
215 -210 -91 -94 -92 0
216 213 -89 0
216 -213 89 0
-216 213 89 0
-216 -213 -89 0
217 92 -90 0
217 -92 90 0
-217 92 90 0
-217 -92 -90 0
-218 213 0
-218 90 0
-218 89 -92 0
-218 -89 92 0
218 -213 89 92 -90 0
218 -213 -89 -92 -90 0
219 216 -87 0
219 -216 87 0
-219 216 87 0
-219 -216 -87 0
220 90 -88 0
220 -90 88 0
-220 90 88 0
-220 -90 -88 0
-221 216 0
-221 88 0
-221 87 -90 0
-221 -87 90 0
221 -216 87 90 -88 0
221 -216 -87 -90 -88 0
222 219 -85 0
222 -219 85 0
-222 219 85 0
-222 -219 -85 0
223 88 -86 0
223 -88 86 0
-223 88 86 0
-223 -88 -86 0
-224 219 0
-224 86 0
-224 85 -88 0
-224 -85 88 0
224 -219 85 88 -86 0
224 -219 -85 -88 -86 0
225 222 -83 0
225 -222 83 0
-225 222 83 0
-225 -222 -83 0
226 86 -84 0
226 -86 84 0
-226 86 84 0
-226 -86 -84 0
-227 222 0
-227 84 0
-227 83 -86 0
-227 -83 86 0
227 -222 83 86 -84 0
227 -222 -83 -86 -84 0
228 225 -81 0
228 -225 81 0
-228 225 81 0
-228 -225 -81 0
229 84 -82 0
229 -84 82 0
-229 84 82 0
-229 -84 -82 0
-230 225 0
-230 82 0
-230 81 -84 0
-230 -81 84 0
230 -225 81 84 -82 0
230 -225 -81 -84 -82 0
231 228 -79 0
231 -228 79 0
-231 228 79 0
-231 -228 -79 0
232 82 -80 0
232 -82 80 0
-232 82 80 0
-232 -82 -80 0
-233 228 0
-233 80 0
-233 79 -82 0
-233 -79 82 0
233 -228 79 82 -80 0
233 -228 -79 -82 -80 0
234 231 -77 0
234 -231 77 0
-234 231 77 0
-234 -231 -77 0
235 80 -78 0
235 -80 78 0
-235 80 78 0
-235 -80 -78 0
-236 231 0
-236 78 0
-236 77 -80 0
-236 -77 80 0
236 -231 77 80 -78 0
236 -231 -77 -80 -78 0
237 234 -75 0
237 -234 75 0
-237 234 75 0
-237 -234 -75 0
238 78 -76 0
238 -78 76 0
-238 78 76 0
-238 -78 -76 0
-239 234 0
-239 76 0
-239 75 -78 0
-239 -75 78 0
239 -234 75 78 -76 0
239 -234 -75 -78 -76 0
240 237 -73 0
240 -237 73 0
-240 237 73 0
-240 -237 -73 0
241 76 -74 0
241 -76 74 0
-241 76 74 0
-241 -76 -74 0
-242 237 0
-242 74 0
-242 73 -76 0
-242 -73 76 0
242 -237 73 76 -74 0
242 -237 -73 -76 -74 0
243 240 -71 0
243 -240 71 0
-243 240 71 0
-243 -240 -71 0
244 74 -72 0
244 -74 72 0
-244 74 72 0
-244 -74 -72 0
-245 240 0
-245 72 0
-245 71 -74 0
-245 -71 74 0
245 -240 71 74 -72 0
245 -240 -71 -74 -72 0
246 243 -69 0
246 -243 69 0
-246 243 69 0
-246 -243 -69 0
247 72 -70 0
247 -72 70 0
-247 72 70 0
-247 -72 -70 0
-248 243 0
-248 70 0
-248 69 -72 0
-248 -69 72 0
248 -243 69 72 -70 0
248 -243 -69 -72 -70 0
249 246 -67 0
249 -246 67 0
-249 246 67 0
-249 -246 -67 0
250 70 -68 0
250 -70 68 0
-250 70 68 0
-250 -70 -68 0
-251 246 0
-251 68 0
-251 67 -70 0
-251 -67 70 0
251 -246 67 70 -68 0
251 -246 -67 -70 -68 0
252 249 -65 0
252 -249 65 0
-252 249 65 0
-252 -249 -65 0
253 68 -66 0
253 -68 66 0
-253 68 66 0
-253 -68 -66 0
-254 249 0
-254 66 0
-254 65 -68 0
-254 -65 68 0
254 -249 65 68 -66 0
254 -249 -65 -68 -66 0
255 252 -63 0
255 -252 63 0
-255 252 63 0
-255 -252 -63 0
256 66 -64 0
256 -66 64 0
-256 66 64 0
-256 -66 -64 0
-257 252 0
-257 64 0
-257 63 -66 0
-257 -63 66 0
257 -252 63 66 -64 0
257 -252 -63 -66 -64 0
258 255 -61 0
258 -255 61 0
-258 255 61 0
-258 -255 -61 0
259 64 -62 0
259 -64 62 0
-259 64 62 0
-259 -64 -62 0
-260 255 0
-260 62 0
-260 61 -64 0
-260 -61 64 0
260 -255 61 64 -62 0
260 -255 -61 -64 -62 0
261 258 -59 0
261 -258 59 0
-261 258 59 0
-261 -258 -59 0
262 62 -60 0
262 -62 60 0
-262 62 60 0
-262 -62 -60 0
-263 258 0
-263 60 0
-263 59 -62 0
-263 -59 62 0
263 -258 59 62 -60 0
263 -258 -59 -62 -60 0
264 261 -57 0
264 -261 57 0
-264 261 57 0
-264 -261 -57 0
265 60 -58 0
265 -60 58 0
-265 60 58 0
-265 -60 -58 0
-266 261 0
-266 58 0
-266 57 -60 0
-266 -57 60 0
266 -261 57 60 -58 0
266 -261 -57 -60 -58 0
267 264 -55 0
267 -264 55 0
-267 264 55 0
-267 -264 -55 0
268 58 -56 0
268 -58 56 0
-268 58 56 0
-268 -58 -56 0
-269 264 0
-269 56 0
-269 55 -58 0
-269 -55 58 0
269 -264 55 58 -56 0
269 -264 -55 -58 -56 0
270 267 -53 0
270 -267 53 0
-270 267 53 0
-270 -267 -53 0
271 56 -54 0
271 -56 54 0
-271 56 54 0
-271 -56 -54 0
-272 267 0
-272 54 0
-272 53 -56 0
-272 -53 56 0
272 -267 53 56 -54 0
272 -267 -53 -56 -54 0
273 270 -51 0
273 -270 51 0
-273 270 51 0
-273 -270 -51 0
274 54 -52 0
274 -54 52 0
-274 54 52 0
-274 -54 -52 0
-275 270 0
-275 52 0
-275 51 -54 0
-275 -51 54 0
275 -270 51 54 -52 0
275 -270 -51 -54 -52 0
276 273 -49 0
276 -273 49 0
-276 273 49 0
-276 -273 -49 0
277 52 -50 0
277 -52 50 0
-277 52 50 0
-277 -52 -50 0
-278 273 0
-278 50 0
-278 49 -52 0
-278 -49 52 0
278 -273 49 52 -50 0
278 -273 -49 -52 -50 0
279 276 -47 0
279 -276 47 0
-279 276 47 0
-279 -276 -47 0
280 50 -48 0
280 -50 48 0
-280 50 48 0
-280 -50 -48 0
-281 276 0
-281 48 0
-281 47 -50 0
-281 -47 50 0
281 -276 47 50 -48 0
281 -276 -47 -50 -48 0
282 279 -45 0
282 -279 45 0
-282 279 45 0
-282 -279 -45 0
283 48 -46 0
283 -48 46 0
-283 48 46 0
-283 -48 -46 0
-284 279 0
-284 46 0
-284 45 -48 0
-284 -45 48 0
284 -279 45 48 -46 0
284 -279 -45 -48 -46 0
285 282 -43 0
285 -282 43 0
-285 282 43 0
-285 -282 -43 0
286 46 -44 0
286 -46 44 0
-286 46 44 0
-286 -46 -44 0
-287 282 0
-287 44 0
-287 43 -46 0
-287 -43 46 0
287 -282 43 46 -44 0
287 -282 -43 -46 -44 0
288 285 -41 0
288 -285 41 0
-288 285 41 0
-288 -285 -41 0
289 44 -42 0
289 -44 42 0
-289 44 42 0
-289 -44 -42 0
-290 285 0
-290 42 0
-290 41 -44 0
-290 -41 44 0
290 -285 41 44 -42 0
290 -285 -41 -44 -42 0
291 288 -39 0
291 -288 39 0
-291 288 39 0
-291 -288 -39 0
292 42 -40 0
292 -42 40 0
-292 42 40 0
-292 -42 -40 0
-293 288 0
-293 40 0
-293 39 -42 0
-293 -39 42 0
293 -288 39 42 -40 0
293 -288 -39 -42 -40 0
294 291 -37 0
294 -291 37 0
-294 291 37 0
-294 -291 -37 0
295 40 -38 0
295 -40 38 0
-295 40 38 0
-295 -40 -38 0
-296 291 0
-296 38 0
-296 37 -40 0
-296 -37 40 0
296 -291 37 40 -38 0
296 -291 -37 -40 -38 0
297 294 -35 0
297 -294 35 0
-297 294 35 0
-297 -294 -35 0
298 38 -36 0
298 -38 36 0
-298 38 36 0
-298 -38 -36 0
-299 294 0
-299 36 0
-299 35 -38 0
-299 -35 38 0
299 -294 35 38 -36 0
299 -294 -35 -38 -36 0
300 297 -33 0
300 -297 33 0
-300 297 33 0
-300 -297 -33 0
301 36 -34 0
301 -36 34 0
-301 36 34 0
-301 -36 -34 0
-302 297 0
-302 34 0
-302 33 -36 0
-302 -33 36 0
302 -297 33 36 -34 0
302 -297 -33 -36 -34 0
303 300 -31 0
303 -300 31 0
-303 300 31 0
-303 -300 -31 0
304 34 -32 0
304 -34 32 0
-304 34 32 0
-304 -34 -32 0
-305 300 0
-305 32 0
-305 31 -34 0
-305 -31 34 0
305 -300 31 34 -32 0
305 -300 -31 -34 -32 0
306 303 -29 0
306 -303 29 0
-306 303 29 0
-306 -303 -29 0
307 32 -30 0
307 -32 30 0
-307 32 30 0
-307 -32 -30 0
-308 303 0
-308 30 0
-308 29 -32 0
-308 -29 32 0
308 -303 29 32 -30 0
308 -303 -29 -32 -30 0
309 306 -27 0
309 -306 27 0
-309 306 27 0
-309 -306 -27 0
310 30 -28 0
310 -30 28 0
-310 30 28 0
-310 -30 -28 0
-311 306 0
-311 28 0
-311 27 -30 0
-311 -27 30 0
311 -306 27 30 -28 0
311 -306 -27 -30 -28 0
312 309 -25 0
312 -309 25 0
-312 309 25 0
-312 -309 -25 0
313 28 -26 0
313 -28 26 0
-313 28 26 0
-313 -28 -26 0
-314 309 0
-314 26 0
-314 25 -28 0
-314 -25 28 0
314 -309 25 28 -26 0
314 -309 -25 -28 -26 0
315 312 -23 0
315 -312 23 0
-315 312 23 0
-315 -312 -23 0
316 26 -24 0
316 -26 24 0
-316 26 24 0
-316 -26 -24 0
-317 312 0
-317 24 0
-317 23 -26 0
-317 -23 26 0
317 -312 23 26 -24 0
317 -312 -23 -26 -24 0
318 315 -21 0
318 -315 21 0
-318 315 21 0
-318 -315 -21 0
319 24 -22 0
319 -24 22 0
-319 24 22 0
-319 -24 -22 0
-320 315 0
-320 22 0
-320 21 -24 0
-320 -21 24 0
320 -315 21 24 -22 0
320 -315 -21 -24 -22 0
321 318 -19 0
321 -318 19 0
-321 318 19 0
-321 -318 -19 0
322 22 -20 0
322 -22 20 0
-322 22 20 0
-322 -22 -20 0
-323 318 0
-323 20 0
-323 19 -22 0
-323 -19 22 0
323 -318 19 22 -20 0
323 -318 -19 -22 -20 0
324 321 -17 0
324 -321 17 0
-324 321 17 0
-324 -321 -17 0
325 20 -18 0
325 -20 18 0
-325 20 18 0
-325 -20 -18 0
-326 321 0
-326 18 0
-326 17 -20 0
-326 -17 20 0
326 -321 17 20 -18 0
326 -321 -17 -20 -18 0
327 324 -15 0
327 -324 15 0
-327 324 15 0
-327 -324 -15 0
328 18 -16 0
328 -18 16 0
-328 18 16 0
-328 -18 -16 0
-329 324 0
-329 16 0
-329 15 -18 0
-329 -15 18 0
329 -324 15 18 -16 0
329 -324 -15 -18 -16 0
330 327 -13 0
330 -327 13 0
-330 327 13 0
-330 -327 -13 0
331 16 -14 0
331 -16 14 0
-331 16 14 0
-331 -16 -14 0
-332 327 0
-332 14 0
-332 13 -16 0
-332 -13 16 0
332 -327 13 16 -14 0
332 -327 -13 -16 -14 0
333 330 -11 0
333 -330 11 0
-333 330 11 0
-333 -330 -11 0
334 14 -12 0
334 -14 12 0
-334 14 12 0
-334 -14 -12 0
-335 330 0
-335 12 0
-335 11 -14 0
-335 -11 14 0
335 -330 11 14 -12 0
335 -330 -11 -14 -12 0
336 333 -9 0
336 -333 9 0
-336 333 9 0
-336 -333 -9 0
337 12 -10 0
337 -12 10 0
-337 12 10 0
-337 -12 -10 0
-338 333 0
-338 10 0
-338 9 -12 0
-338 -9 12 0
338 -333 9 12 -10 0
338 -333 -9 -12 -10 0
339 336 -7 0
339 -336 7 0
-339 336 7 0
-339 -336 -7 0
340 10 -8 0
340 -10 8 0
-340 10 8 0
-340 -10 -8 0
-341 336 0
-341 8 0
-341 7 -10 0
-341 -7 10 0
341 -336 7 10 -8 0
341 -336 -7 -10 -8 0
342 339 -5 0
342 -339 5 0
-342 339 5 0
-342 -339 -5 0
343 8 -6 0
343 -8 6 0
-343 8 6 0
-343 -8 -6 0
-344 339 0
-344 6 0
-344 5 -8 0
-344 -5 8 0
344 -339 5 8 -6 0
344 -339 -5 -8 -6 0
345 342 -3 0
345 -342 3 0
-345 342 3 0
-345 -342 -3 0
346 6 -4 0
346 -6 4 0
-346 6 4 0
-346 -6 -4 0
-347 342 0
-347 4 0
-347 3 -6 0
-347 -3 6 0
347 -342 3 6 -4 0
347 -342 -3 -6 -4 0
348 345 -1 0
348 -345 1 0
-348 345 1 0
-348 -345 -1 0
349 4 -2 0
349 -4 2 0
-349 4 2 0
-349 -4 -2 0
-350 345 0
-350 2 0
-350 1 -4 0
-350 -1 4 0
350 -345 1 4 -2 0
350 -345 -1 -4 -2 0
-348 0
-345 0
-349 0
-342 0
-346 0
-339 0
-343 0
-336 0
-340 0
-333 0
-337 0
-330 0
-334 0
-327 0
-331 0
-324 0
-328 0
-321 0
-325 0
-318 0
-322 0
-315 0
-319 0
-312 0
-316 0
-309 0
-313 0
-306 0
-310 0
-303 0
-307 0
-300 0
-304 0
-297 0
-301 0
-294 0
-298 0
-291 0
-295 0
-288 0
-292 0
-285 0
-289 0
-282 0
-286 0
-279 0
-283 0
-276 0
-280 0
-273 0
-277 0
-270 0
-274 0
-267 0
-271 0
-264 0
-268 0
-261 0
-265 0
-258 0
-262 0
-255 0
-259 0
-252 0
-256 0
-249 0
-253 0
-246 0
-250 0
-243 0
-247 0
-240 0
-244 0
-237 0
-241 0
-234 0
-238 0
-231 0
-235 0
-228 0
-232 0
-225 0
-229 0
-222 0
-226 0
-219 0
-223 0
-216 0
-220 0
-213 0
-217 0
-210 0
-214 0
-207 0
-211 0
-204 0
-208 0
-201 0
-205 0
-198 0
-202 0
-195 0
-199 0
-192 0
-196 0
-189 0
-193 0
-186 0
-190 0
-183 0
-187 0
-180 0
-184 0
-177 0
-181 0
-174 0
-178 0
-171 0
-175 0
-168 0
-172 0
-165 0
-169 0
-162 0
-166 0
-159 0
-163 0
-156 0
-160 0
-153 0
-157 0
-150 0
-154 0
-147 0
-151 0
-141 0
-148 0
